proyfinal/src/viki/013/experimentInOfficeAgust.take6.output/8535a337-db0b-4933-bbf2-729da7ec2b00.als.dat
{'cnf.clauses': '118081',
 'cnf.totvars': '69608',
 'conflict literals': '77',
 'conflicts': '30',
 'decisions': '10741',
 'memused.mb': '17.14',
 'outcome': 'UNSAT',
 'propagations': '45345',
 'restarts': '1',
 'solver.msecs': 30,
 'task.msecs': 156}
