proyfinal/src/viki/013/experimentInOfficeAgust.take6.output/8535a337-db0b-4933-bbf2-729da7ec2b00.als.out
Reading from standard input... Use '--help' for help.
============================[ Problem Statistics ]=============================
|                                                                             |
|  Number of variables:         69608                                         |
|  Number of clauses:          118081                                         |
|  Parse time:                   0.02 s                                       |
|                                                                             |
============================[ Search Statistics ]==============================
| Conflicts |          ORIGINAL         |          LEARNT          | Progress |
|           |    Vars  Clauses Literals |    Limit  Clauses Lit/Cl |          |
===============================================================================
===============================================================================
restarts              : 1
conflicts             : 30             (975 /sec)
decisions             : 10741          (0.00 % random) (349085 /sec)
propagations          : 45345          (1473724 /sec)
conflict literals     : 77             (3.75 % deleted)
Memory used           : 17.14 MB
CPU time              : 0.030769 s

UNSATISFIABLE
